; benchmark generated from python API
(set-info :status unknown)
(declare-fun x_month () Int)
(declare-fun x_day () Int)
(declare-fun x_year () Int)
(declare-fun y_month () Int)
(declare-fun y_day () Int)
(declare-fun y_year () Int)
(assert
 (>= x_month 1))
(assert
 (<= x_month 12))
(assert
 (>= x_day 1))
(assert
 (<= x_day 31))
(assert
 (let (($x282 (<= x_day 28)))
 (let (($x281 (<= x_day 29)))
 (let (($x279 (= (mod x_year 400) 0)))
 (let (($x270 (= (mod x_year 4) 0)))
 (let (($x361 (ite (or (and $x270 (and (distinct (mod x_year 100) 0) true)) $x279) $x281 $x282)))
 (let (($x306 (= x_month 2)))
 (ite $x306 $x361 true))))))))
(assert
 (let (($x347 (<= x_day 30)))
 (let (($x345 (or (= x_month 4) (= x_month 6) (= x_month 9) (= x_month 11))))
 (ite $x345 $x347 true))))
(assert
 (>= y_month 1))
(assert
 (<= y_month 12))
(assert
 (>= y_day 1))
(assert
 (<= y_day 31))
(assert
 (let (($x314 (<= y_day 28)))
 (let (($x322 (<= y_day 29)))
 (let (($x321 (= (mod y_year 400) 0)))
 (let (($x324 (= (mod y_year 4) 0)))
 (let (($x316 (ite (or (and $x324 (and (distinct (mod y_year 100) 0) true)) $x321) $x322 $x314)))
 (let (($x330 (= y_month 2)))
 (ite $x330 $x316 true))))))))
(assert
 (let (($x343 (<= y_day 30)))
 (let (($x338 (or (= y_month 4) (= y_month 6) (= y_month 9) (= y_month 11))))
 (ite $x338 $x343 true))))
(assert
 (let (($x274 (= x_day 31)))
 (let (($x291 (= x_month 1)))
 (let (($x364 (= x_year 2020)))
 (and $x364 $x291 $x274)))))
(assert
 (let (($x287 (= y_day 31)))
 (let (($x286 (= y_month 1)))
 (let (($x285 (= y_year 2019)))
 (and $x285 $x286 $x287)))))
(assert
 (let ((?x366 (+ (mod (- (+ x_month (+ (* 0 12) 1)) 1) 12) 1)))
 (let ((?x389 (ite (or (= ?x366 4) (= ?x366 6) (= ?x366 9) (= ?x366 11)) 30 31)))
 (let ((?x365 (+ 0 (div (- (+ x_month (+ (* 0 12) 1)) 1) 12))))
 (let ((?x367 (+ x_year ?x365)))
 (let (($x376 (or (and (= (mod ?x367 4) 0) (and (distinct (mod ?x367 100) 0) true)) (= (mod ?x367 400) 0))))
 (let ((?x390 (ite (= ?x366 2) (ite $x376 29 28) ?x389)))
 (let ((?x383 (ite (< x_day 1) 1 (ite (> x_day ?x390) ?x390 x_day))))
 (let ((?x264 (ite (< ?x383 1) 1 (ite (> ?x383 ?x390) ?x390 ?x383))))
 (let ((?x431 (ite (= 2 ?x366) (ite $x376 31 31) (ite (= 1 ?x366) (ite $x376 0 0) 0))))
 (let ((?x421 (ite (= 4 ?x366) (ite $x376 91 90) (ite (= 3 ?x366) (ite $x376 60 59) ?x431))))
 (let ((?x416 (ite (= 6 ?x366) (ite $x376 152 151) (ite (= 5 ?x366) (ite $x376 121 120) ?x421))))
 (let ((?x471 (ite (= 8 ?x366) (ite $x376 213 212) (ite (= 7 ?x366) (ite $x376 182 181) ?x416))))
 (let ((?x455 (ite (= 10 ?x366) (ite $x376 274 273) (ite (= 9 ?x366) (ite $x376 244 243) ?x471))))
 (let ((?x440 (ite (= 12 ?x366) (ite $x376 335 334) (ite (= 11 ?x366) (ite $x376 305 304) ?x455))))
 (let ((?x396 (- (+ (* 365 (- ?x367 1)) (div (- ?x367 1) 4)) (div (- ?x367 1) 100))))
 (let ((?x401 (- (+ (+ (+ ?x396 (div (- ?x367 1) 400)) ?x440) (- ?x264 1)) 730179)))
 (let ((?x436 (+ (+ ?x401 0) 730179)))
 (let ((?x448 (mod ?x436 146097)))
 (let ((?x451 (div ?x448 36524)))
 (let ((?x457 (ite (<= 4 ?x451) 3 ?x451)))
 (let ((?x463 (- ?x448 (* ?x457 36524))))
 (let ((?x469 (mod ?x463 1461)))
 (let ((?x472 (div ?x469 365)))
 (let ((?x474 (ite (<= 4 ?x472) 3 ?x472)))
 (let ((?x255 (+ (+ (* (div ?x436 146097) 400) (* ?x457 100)) (* (div ?x463 1461) 4))))
 (let ((?x229 (+ (+ ?x255 ?x474) 1)))
 (let (($x239 (or (and (= (mod ?x229 4) 0) (and (distinct (mod ?x229 100) 0) true)) (= (mod ?x229 400) 0))))
 (let ((?x250 (- ?x469 (* ?x474 365))))
 (let ((?x241 (ite $x239 31 31)))
 (let (($x483 (>= ?x250 ?x241)))
 (let ((?x521 (ite $x483 (+ (- ?x250 ?x241) 1) (+ (- ?x250 (ite $x239 0 0)) 1))))
 (let ((?x226 (ite $x239 60 59)))
 (let (($x489 (>= ?x250 ?x226)))
 (let ((?x225 (ite $x239 91 90)))
 (let (($x491 (>= ?x250 ?x225)))
 (let ((?x207 (ite $x491 (+ (- ?x250 ?x225) 1) (ite $x489 (+ (- ?x250 ?x226) 1) ?x521))))
 (let ((?x224 (ite $x239 121 120)))
 (let (($x493 (>= ?x250 ?x224)))
 (let ((?x206 (ite $x239 152 151)))
 (let (($x495 (>= ?x250 ?x206)))
 (let ((?x475 (ite $x495 (+ (- ?x250 ?x206) 1) (ite $x493 (+ (- ?x250 ?x224) 1) ?x207))))
 (let ((?x479 (ite $x239 182 181)))
 (let (($x497 (>= ?x250 ?x479)))
 (let ((?x480 (ite $x239 213 212)))
 (let (($x499 (>= ?x250 ?x480)))
 (let ((?x242 (ite $x499 (+ (- ?x250 ?x480) 1) (ite $x497 (+ (- ?x250 ?x479) 1) ?x475))))
 (let ((?x481 (ite $x239 244 243)))
 (let (($x501 (>= ?x250 ?x481)))
 (let ((?x482 (ite $x239 274 273)))
 (let (($x503 (>= ?x250 ?x482)))
 (let ((?x518 (ite $x503 (+ (- ?x250 ?x482) 1) (ite $x501 (+ (- ?x250 ?x481) 1) ?x242))))
 (let ((?x488 (ite $x239 305 304)))
 (let (($x505 (>= ?x250 ?x488)))
 (let ((?x476 (ite $x239 335 334)))
 (let (($x509 (>= ?x250 ?x476)))
 (let ((?x247 (ite $x509 (+ (- ?x250 ?x476) 1) (ite $x505 (+ (- ?x250 ?x488) 1) ?x518))))
 (let (($x263 (= 0 0)))
 (let ((?x494 (ite $x493 5 (ite $x491 4 (ite $x489 3 (ite $x483 2 1))))))
 (let ((?x502 (ite $x501 9 (ite $x499 8 (ite $x497 7 (ite $x495 6 ?x494))))))
 (let (($x290 (= (ite $x263 ?x366 (ite $x509 12 (ite $x505 11 (ite $x503 10 ?x502)))) 2)))
 (and (= (ite $x263 ?x367 ?x229) 2020) $x290 (= (ite $x263 ?x264 ?x247) 29)))))))))))))))))))))))))))))))))))))))))))))))))))))))))))))))
(assert
 (let ((?x580 (+ (mod (- (+ y_month (+ (* 0 12) 1)) 1) 12) 1)))
(let ((?x597 (ite (or (= ?x580 4) (= ?x580 6) (= ?x580 9) (= ?x580 11)) 30 31)))
(let ((?x579 (+ 0 (div (- (+ y_month (+ (* 0 12) 1)) 1) 12))))
(let ((?x581 (+ y_year ?x579)))
(let (($x590 (or (and (= (mod ?x581 4) 0) (and (distinct (mod ?x581 100) 0) true)) (= (mod ?x581 400) 0))))
(let ((?x598 (ite (= ?x580 2) (ite $x590 29 28) ?x597)))
(let ((?x602 (ite (< y_day 1) 1 (ite (> y_day ?x598) ?x598 y_day))))
(let ((?x606 (ite (< ?x602 1) 1 (ite (> ?x602 ?x598) ?x598 ?x602))))
(let ((?x620 (ite (= 2 ?x580) (ite $x590 31 31) (ite (= 1 ?x580) (ite $x590 0 0) 0))))
(let ((?x626 (ite (= 4 ?x580) (ite $x590 91 90) (ite (= 3 ?x580) (ite $x590 60 59) ?x620))))
(let ((?x632 (ite (= 6 ?x580) (ite $x590 152 151) (ite (= 5 ?x580) (ite $x590 121 120) ?x626))))
(let ((?x638 (ite (= 8 ?x580) (ite $x590 213 212) (ite (= 7 ?x580) (ite $x590 182 181) ?x632))))
(let ((?x644 (ite (= 10 ?x580) (ite $x590 274 273) (ite (= 9 ?x580) (ite $x590 244 243) ?x638))))
(let ((?x650 (ite (= 12 ?x580) (ite $x590 335 334) (ite (= 11 ?x580) (ite $x590 305 304) ?x644))))
(let ((?x612 (- (+ (* 365 (- ?x581 1)) (div (- ?x581 1) 4)) (div (- ?x581 1) 100))))
(let ((?x654 (- (+ (+ (+ ?x612 (div (- ?x581 1) 400)) ?x650) (- ?x606 1)) 730179)))
(let ((?x656 (+ (+ ?x654 0) 730179)))
(let ((?x658 (mod ?x656 146097)))
(let ((?x659 (div ?x658 36524)))
(let ((?x661 (ite (<= 4 ?x659) 3 ?x659)))
(let ((?x663 (- ?x658 (* ?x661 36524))))
(let ((?x665 (mod ?x663 1461)))
(let ((?x666 (div ?x665 365)))
(let ((?x668 (ite (<= 4 ?x666) 3 ?x666)))
(let ((?x675 (+ (+ (* (div ?x656 146097) 400) (* ?x661 100)) (* (div ?x663 1461) 4))))
(let ((?x677 (+ (+ ?x675 ?x668) 1)))
(let (($x685 (or (and (= (mod ?x677 4) 0) (and (distinct (mod ?x677 100) 0) true)) (= (mod ?x677 400) 0))))
(let ((?x670 (- ?x665 (* ?x668 365))))
(let ((?x687 (ite $x685 31 31)))
(let (($x698 (>= ?x670 ?x687)))
(let ((?x724 (ite $x698 (+ (- ?x670 ?x687) 1) (+ (- ?x670 (ite $x685 0 0)) 1))))
(let ((?x688 (ite $x685 60 59)))
(let (($x700 (>= ?x670 ?x688)))
(let ((?x689 (ite $x685 91 90)))
(let (($x702 (>= ?x670 ?x689)))
(let ((?x730 (ite $x702 (+ (- ?x670 ?x689) 1) (ite $x700 (+ (- ?x670 ?x688) 1) ?x724))))
(let ((?x690 (ite $x685 121 120)))
(let (($x704 (>= ?x670 ?x690)))
(let ((?x691 (ite $x685 152 151)))
(let (($x706 (>= ?x670 ?x691)))
(let ((?x736 (ite $x706 (+ (- ?x670 ?x691) 1) (ite $x704 (+ (- ?x670 ?x690) 1) ?x730))))
(let ((?x692 (ite $x685 182 181)))
(let (($x708 (>= ?x670 ?x692)))
(let ((?x693 (ite $x685 213 212)))
(let (($x710 (>= ?x670 ?x693)))
(let ((?x742 (ite $x710 (+ (- ?x670 ?x693) 1) (ite $x708 (+ (- ?x670 ?x692) 1) ?x736))))
(let ((?x694 (ite $x685 244 243)))
(let (($x712 (>= ?x670 ?x694)))
(let ((?x695 (ite $x685 274 273)))
(let (($x714 (>= ?x670 ?x695)))
(let ((?x748 (ite $x714 (+ (- ?x670 ?x695) 1) (ite $x712 (+ (- ?x670 ?x694) 1) ?x742))))
(let ((?x696 (ite $x685 305 304)))
(let (($x716 (>= ?x670 ?x696)))
(let ((?x697 (ite $x685 335 334)))
(let (($x718 (>= ?x670 ?x697)))
(let ((?x754 (ite $x718 (+ (- ?x670 ?x697) 1) (ite $x716 (+ (- ?x670 ?x696) 1) ?x748))))
(let (($x263 (= 0 0)))
(let ((?x705 (ite $x704 5 (ite $x702 4 (ite $x700 3 (ite $x698 2 1))))))
(let ((?x713 (ite $x712 9 (ite $x710 8 (ite $x708 7 (ite $x706 6 ?x705))))))
(let (($x573 (= (ite $x263 ?x580 (ite $x718 12 (ite $x716 11 (ite $x714 10 ?x713)))) 2)))
(and (= (ite $x263 ?x581 ?x677) 2019) $x573 (= (ite $x263 ?x606 ?x754) 28)))))))))))))))))))))))))))))))))))))))))))))))))))))))))))))))
(check-sat)
